
Gurobi 9.1.2 (win64, Java) logging started Sat Nov  6 06:58:49 2021

Academic license - for non-commercial use only - expires 2022-10-30
Gurobi Optimizer version 9.1.2 build v9.1.2rc0 (win64)
Thread count: 6 physical cores, 12 logical processors, using up to 12 threads
Optimize a model with 40 rows, 400 columns and 800 nonzeros
Model fingerprint: 0x8aa369f7
Variable types: 0 continuous, 400 integer (400 binary)
Coefficient statistics:
  Matrix range     [1e+00, 1e+03]
  Objective range  [2e+02, 9e+02]
  Bounds range     [1e+00, 1e+00]
  RHS range        [1e+00, 4e+02]
Found heuristic solution: objective 2601.0000000
Presolve removed 20 rows and 329 columns
Presolve time: 0.01s
Presolved: 20 rows, 71 columns, 142 nonzeros
Variable types: 0 continuous, 71 integer (71 binary)
Presolved: 20 rows, 71 columns, 142 nonzeros


Root relaxation: cutoff, 12 iterations, 0.00 seconds

    Nodes    |    Current Node    |     Objective Bounds      |     Work
 Expl Unexpl |  Obj  Depth IntInf | Incumbent    BestBd   Gap | It/Node Time

     0     0     cutoff    0      2601.00000 2601.00000  0.00%     -    0s

Explored 0 nodes (12 simplex iterations) in 0.02 seconds
Thread count was 12 (of 12 available processors)

Solution count 1: 2601 

Optimal solution found (tolerance 1.00e-04)
Best objective 2.601000000000e+03, best bound 2.601000000000e+03, gap 0.0000%
